HORSE = { H1, H2, H3, H4, H5, H6, H7, H8, H9, H10 };
RIDER = { R1, R2, R3, R4, R5, R6, R7, R8, R9, R10, R11 };

speed = [ 10, 9, 8, 7, 6, 5, 7, 4, 3, 2 ];
endur = [ 8, 4, 3, 2, 6, 4, 2, 6, 7, 5, 3 ];
strength = [ 5, 2, 8, 9, 4, 2, 1, 3, 4, 5, 9 ];

compatible = [ {R2, R3, R11}, {R5, R6}, {R8}, {R1, R5}, {R4}, {R2, R7}, {R1, R3}, {R9, R1, R10}, {R11, R3}, {R9, R10, R7} ];

n = 5;